decision_x1=[0,7];
decision_x2=[0,7];
decision_x3=[0,7];
decision_x4=[0,7];
decision_x5=[0,7];
decision_x6=[0,7];
decision_x7=[0,7];
decision_x8=[0,7];
decision_x9=[0,7];
decision_x10=[0,7];
decision_x11=[0,7];
decision_x12=[0,7];
decision_x13=[0,7];
decision_x14=[0,7];
random_y1=[0,7];
random_y2=[0,7];
random_y3=[0,7];
random_y4=[0,7];
random_y5=[0,7];
random_y6=[0,7];
constraint_x2_x1=[
0,0,3.8|
0,1,0.61|
0,2,5.9|
0,3,0.89|
0,4,3.3|
0,5,0.62|
0,6,5.4|
0,7,8.1|
1,0,2.3|
1,1,7.7|
1,2,6|
1,3,2.5|
1,4,2.5|
1,5,3.6|
1,6,2.6|
1,7,3|
2,0,5.8|
2,1,1.2|
2,2,1.6|
2,3,1.4|
2,4,4.3|
2,5,9.1|
2,6,8.2|
2,7,7.7|
3,0,4.7|
3,1,5.7|
3,2,5.1|
3,3,9|
3,4,3.6|
3,5,7.8|
3,6,5.1|
3,7,7|
4,0,7.1|
4,1,9.9|
4,2,3.1|
4,3,1.7|
4,4,9.1|
4,5,6.7|
4,6,2.2|
4,7,1.8|
5,0,6|
5,1,9.5|
5,2,0.13|
5,3,0.58|
5,4,3|
5,5,3.1|
5,6,3.6|
5,7,1.5|
6,0,9.9|
6,1,6.5|
6,2,2.2|
6,3,7.8|
6,4,1.2|
6,5,2.7|
6,6,5.6|
6,7,7.3|
7,0,2.9|
7,1,3.9|
7,2,0.67|
7,3,5.9|
7,4,5.5|
7,5,1.2|
7,6,9.2|
7,7,1.6|
];
constraint_x3_x2=[
0,0,6.5|
0,1,2.2|
0,2,4.9|
0,3,4.5|
0,4,3.7|
0,5,0.68|
0,6,9.7|
0,7,4.3|
1,0,9.9|
1,1,5|
1,2,2.1|
1,3,2.5|
1,4,7.7|
1,5,0.24|
1,6,5.8|
1,7,9.8|
2,0,9.4|
2,1,5.9|
2,2,0.82|
2,3,8.1|
2,4,4.5|
2,5,4|
2,6,4.8|
2,7,3.4|
3,0,2.7|
3,1,4.4|
3,2,6.2|
3,3,6.5|
3,4,2.7|
3,5,3.8|
3,6,6|
3,7,2.4|
4,0,3.1|
4,1,5.5|
4,2,6.2|
4,3,4.6|
4,4,5.9|
4,5,3.9|
4,6,5.4|
4,7,3.6|
5,0,7.8|
5,1,8|
5,2,3.9|
5,3,9.4|
5,4,8.6|
5,5,3.5|
5,6,4.4|
5,7,8.8|
6,0,9|
6,1,9.9|
6,2,8.7|
6,3,1.8|
6,4,1.2|
6,5,7.1|
6,6,4.3|
6,7,2.4|
7,0,1.5|
7,1,7.5|
7,2,1.4|
7,3,1.7|
7,4,2.9|
7,5,7.6|
7,6,1.9|
7,7,8.3|
];
constraint_x4_x3=[
0,0,4.4|
0,1,2.7|
0,2,2.5|
0,3,4.2|
0,4,2.4|
0,5,5.6|
0,6,8.6|
0,7,0.068|
1,0,3.9|
1,1,1.5|
1,2,7.7|
1,3,4.2|
1,4,2.8|
1,5,6|
1,6,6.1|
1,7,3.6|
2,0,6.3|
2,1,4.4|
2,2,8.7|
2,3,9.8|
2,4,0.29|
2,5,5.4|
2,6,9.8|
2,7,9.2|
3,0,6.2|
3,1,0.51|
3,2,7.3|
3,3,4.3|
3,4,6.1|
3,5,5.6|
3,6,1.6|
3,7,5.4|
4,0,1.8|
4,1,9|
4,2,8.3|
4,3,9.1|
4,4,7.6|
4,5,7.2|
4,6,0.46|
4,7,8.3|
5,0,3.3|
5,1,6.5|
5,2,5.8|
5,3,2.3|
5,4,3.6|
5,5,1.6|
5,6,3.9|
5,7,2.9|
6,0,0.85|
6,1,6.4|
6,2,0.88|
6,3,8|
6,4,8.1|
6,5,8.3|
6,6,9.8|
6,7,9.1|
7,0,8.7|
7,1,7.7|
7,2,7.7|
7,3,1.3|
7,4,7.4|
7,5,2.9|
7,6,5.5|
7,7,3.5|
];
constraint_x5_x1=[
0,0,9.3|
0,1,5.6|
0,2,0.17|
0,3,9.8|
0,4,3.2|
0,5,4.4|
0,6,5.9|
0,7,5.8|
1,0,7|
1,1,2.4|
1,2,1.2|
1,3,6.9|
1,4,6.8|
1,5,9.9|
1,6,9.8|
1,7,7.4|
2,0,8.6|
2,1,3.3|
2,2,1.7|
2,3,1.2|
2,4,3.1|
2,5,7.6|
2,6,1.4|
2,7,9.5|
3,0,7.6|
3,1,5.3|
3,2,9.5|
3,3,7.9|
3,4,4.6|
3,5,6.9|
3,6,1|
3,7,8.1|
4,0,3.7|
4,1,8.2|
4,2,7.6|
4,3,8.5|
4,4,2.2|
4,5,7.1|
4,6,0.89|
4,7,5.6|
5,0,2.9|
5,1,9.3|
5,2,2.2|
5,3,6.2|
5,4,9.6|
5,5,7|
5,6,2.1|
5,7,7.4|
6,0,6.1|
6,1,5.6|
6,2,5.6|
6,3,4.9|
6,4,6.2|
6,5,9.5|
6,6,2.5|
6,7,4.7|
7,0,5.3|
7,1,3.9|
7,2,8.3|
7,3,5.9|
7,4,0.4|
7,5,7.7|
7,6,8.8|
7,7,0.95|
];
constraint_x6_x2=[
0,0,1.1|
0,1,5.5|
0,2,7.9|
0,3,1.5|
0,4,3.2|
0,5,0.056|
0,6,8.2|
0,7,9.9|
1,0,9.4|
1,1,8.7|
1,2,0.15|
1,3,0.38|
1,4,3.7|
1,5,6.6|
1,6,5.4|
1,7,0.2|
2,0,9.8|
2,1,1|
2,2,9.3|
2,3,1.1|
2,4,9|
2,5,2.9|
2,6,7.4|
2,7,9|
3,0,0.38|
3,1,6.1|
3,2,8.4|
3,3,5.5|
3,4,6.4|
3,5,8.1|
3,6,1.2|
3,7,4|
4,0,5.4|
4,1,2.4|
4,2,5.2|
4,3,6.2|
4,4,4.8|
4,5,8.3|
4,6,4.1|
4,7,7.7|
5,0,9.3|
5,1,4.1|
5,2,0.13|
5,3,0.53|
5,4,2.9|
5,5,6.1|
5,6,2.2|
5,7,1.2|
6,0,0.39|
6,1,2.5|
6,2,9.2|
6,3,9.6|
6,4,2.2|
6,5,7.6|
6,6,9.6|
6,7,5.1|
7,0,6.6|
7,1,8.6|
7,2,0.094|
7,3,2.3|
7,4,1.5|
7,5,5.5|
7,6,7.1|
7,7,1.6|
];
constraint_x6_x5=[
0,0,5.3|
0,1,3.2|
0,2,3.3|
0,3,1.4|
0,4,4.5|
0,5,2.8|
0,6,8.7|
0,7,6.2|
1,0,9.4|
1,1,7.8|
1,2,9.1|
1,3,1|
1,4,1.4|
1,5,7.5|
1,6,7.2|
1,7,6.9|
2,0,3.5|
2,1,2.5|
2,2,3.1|
2,3,6.6|
2,4,0.8|
2,5,0.79|
2,6,5.4|
2,7,8.6|
3,0,3.5|
3,1,0.7|
3,2,8.5|
3,3,3.6|
3,4,3.6|
3,5,0.82|
3,6,2.1|
3,7,9.1|
4,0,1.4|
4,1,6.6|
4,2,3.8|
4,3,8.5|
4,4,8.8|
4,5,9.7|
4,6,5.4|
4,7,7.4|
5,0,1.5|
5,1,4.3|
5,2,3.7|
5,3,2.7|
5,4,7.6|
5,5,7.2|
5,6,3|
5,7,9.9|
6,0,3.7|
6,1,0.5|
6,2,0.86|
6,3,1.4|
6,4,3|
6,5,9.3|
6,6,0.062|
6,7,5.9|
7,0,5|
7,1,8.1|
7,2,9.1|
7,3,6.6|
7,4,1.8|
7,5,2.9|
7,6,9.3|
7,7,2.9|
];
constraint_x7_x3=[
0,0,1.6|
0,1,6.4|
0,2,1.5|
0,3,7.1|
0,4,3.3|
0,5,9.6|
0,6,4.3|
0,7,7|
1,0,9.5|
1,1,7|
1,2,6.2|
1,3,1.1|
1,4,9|
1,5,8|
1,6,5.2|
1,7,2.7|
2,0,5.4|
2,1,7.6|
2,2,3.6|
2,3,7.6|
2,4,2.7|
2,5,5.6|
2,6,5.6|
2,7,0.18|
3,0,6|
3,1,1.1|
3,2,9.4|
3,3,8.8|
3,4,6|
3,5,4.7|
3,6,8.3|
3,7,1.2|
4,0,9.7|
4,1,4.6|
4,2,6.3|
4,3,5.2|
4,4,7.6|
4,5,3.9|
4,6,6.5|
4,7,9.6|
5,0,6.3|
5,1,6.7|
5,2,0.97|
5,3,2.4|
5,4,2.9|
5,5,6|
5,6,0.51|
5,7,0.93|
6,0,0.44|
6,1,2.8|
6,2,2.9|
6,3,4.5|
6,4,5.9|
6,5,9.9|
6,6,7.5|
6,7,2.6|
7,0,5.5|
7,1,5.3|
7,2,3.7|
7,3,6.2|
7,4,8.2|
7,5,0.98|
7,6,2.1|
7,7,9.8|
];
constraint_x7_x6=[
0,0,6|
0,1,0.95|
0,2,8.7|
0,3,8.8|
0,4,0.79|
0,5,8.4|
0,6,6.8|
0,7,6.9|
1,0,9.7|
1,1,4.9|
1,2,6.1|
1,3,8.5|
1,4,9.4|
1,5,3.4|
1,6,6.3|
1,7,8.7|
2,0,5.3|
2,1,8.3|
2,2,3.9|
2,3,1.3|
2,4,8|
2,5,8.4|
2,6,7.4|
2,7,4|
3,0,3.4|
3,1,6.9|
3,2,6.8|
3,3,8.7|
3,4,1.6|
3,5,5.9|
3,6,4.2|
3,7,9.6|
4,0,2.6|
4,1,2.6|
4,2,7.5|
4,3,2.2|
4,4,9.2|
4,5,0.6|
4,6,3.2|
4,7,4.1|
5,0,0.64|
5,1,8.9|
5,2,5.7|
5,3,1.5|
5,4,6.8|
5,5,8.2|
5,6,4.1|
5,7,2.5|
6,0,8.6|
6,1,4.7|
6,2,7.6|
6,3,1.6|
6,4,1.4|
6,5,9|
6,6,8|
6,7,2.9|
7,0,6.2|
7,1,3.2|
7,2,3.5|
7,3,3.9|
7,4,3.1|
7,5,0.67|
7,6,5|
7,7,3.1|
];
constraint_x8_x4=[
0,0,7.8|
0,1,9.9|
0,2,7|
0,3,6|
0,4,10|
0,5,6.3|
0,6,5.6|
0,7,1.5|
1,0,5.6|
1,1,7.3|
1,2,5|
1,3,6.3|
1,4,10|
1,5,7.2|
1,6,3.9|
1,7,3.6|
2,0,8.6|
2,1,2.3|
2,2,4.2|
2,3,3.1|
2,4,5.9|
2,5,3.9|
2,6,6.9|
2,7,0.66|
3,0,5.3|
3,1,6.3|
3,2,8.2|
3,3,5.4|
3,4,8.4|
3,5,4.3|
3,6,7.4|
3,7,6.4|
4,0,8.2|
4,1,8.2|
4,2,1.6|
4,3,8.4|
4,4,0.2|
4,5,9.9|
4,6,4.9|
4,7,3|
5,0,8.6|
5,1,5.7|
5,2,2.7|
5,3,8.5|
5,4,4.8|
5,5,6.3|
5,6,5.7|
5,7,9.2|
6,0,7.3|
6,1,3.6|
6,2,8|
6,3,2.5|
6,4,8.4|
6,5,7.6|
6,6,4.8|
6,7,2.4|
7,0,1.7|
7,1,6.4|
7,2,4.9|
7,3,0.9|
7,4,0.94|
7,5,4|
7,6,6.4|
7,7,9.5|
];
constraint_x8_x7=[
0,0,3.2|
0,1,6.2|
0,2,2.9|
0,3,4.7|
0,4,1.7|
0,5,7.2|
0,6,1.9|
0,7,3.1|
1,0,6.9|
1,1,7.8|
1,2,7|
1,3,5.4|
1,4,7.2|
1,5,0.071|
1,6,4.2|
1,7,9.7|
2,0,7.8|
2,1,1.1|
2,2,3.4|
2,3,8.8|
2,4,5.4|
2,5,5.1|
2,6,0.32|
2,7,6.7|
3,0,1.8|
3,1,4.1|
3,2,1.1|
3,3,0.86|
3,4,4.4|
3,5,2.8|
3,6,10|
3,7,7.5|
4,0,8.8|
4,1,4.9|
4,2,5.3|
4,3,5.1|
4,4,7.5|
4,5,9.6|
4,6,6.1|
4,7,2.8|
5,0,3.7|
5,1,6.8|
5,2,0.075|
5,3,7.8|
5,4,1.1|
5,5,7.2|
5,6,6.6|
5,7,1.2|
6,0,3.2|
6,1,3.3|
6,2,2|
6,3,1.6|
6,4,0.99|
6,5,9.6|
6,6,1.6|
6,7,3.2|
7,0,4.2|
7,1,2|
7,2,0.36|
7,3,8|
7,4,7|
7,5,9.6|
7,6,9.3|
7,7,6.9|
];
constraint_x9_x5=[
0,0,1.7|
0,1,1.1|
0,2,2.9|
0,3,2|
0,4,6.2|
0,5,1.8|
0,6,9.8|
0,7,4.3|
1,0,3.6|
1,1,9|
1,2,2|
1,3,8.2|
1,4,8.4|
1,5,5.1|
1,6,8.6|
1,7,1.7|
2,0,1.2|
2,1,0.3|
2,2,9.3|
2,3,0.97|
2,4,5.4|
2,5,1.6|
2,6,1.3|
2,7,6|
3,0,8|
3,1,0.84|
3,2,1.5|
3,3,4.9|
3,4,5.6|
3,5,4.7|
3,6,5|
3,7,0.088|
4,0,7.4|
4,1,6.3|
4,2,9.4|
4,3,1.1|
4,4,7.8|
4,5,3.9|
4,6,7.1|
4,7,5.6|
5,0,2.2|
5,1,6.8|
5,2,7.4|
5,3,5.5|
5,4,5.6|
5,5,2.6|
5,6,1.8|
5,7,6.2|
6,0,8.8|
6,1,7.4|
6,2,7.6|
6,3,3.2|
6,4,6.1|
6,5,7.1|
6,6,8.9|
6,7,2.7|
7,0,0.85|
7,1,9|
7,2,7.6|
7,3,1.7|
7,4,6.5|
7,5,7|
7,6,8.2|
7,7,9.6|
];
constraint_x10_x6=[
0,0,3.4|
0,1,5.2|
0,2,4.8|
0,3,3.4|
0,4,9.9|
0,5,9.5|
0,6,5.3|
0,7,8.4|
1,0,6|
1,1,6.7|
1,2,8.4|
1,3,6.7|
1,4,5.6|
1,5,5.5|
1,6,2.2|
1,7,3.8|
2,0,8.8|
2,1,1.6|
2,2,8|
2,3,4.1|
2,4,2.2|
2,5,8.4|
2,6,8.8|
2,7,3.8|
3,0,2.2|
3,1,0.59|
3,2,6.6|
3,3,6|
3,4,9.5|
3,5,5.9|
3,6,1.4|
3,7,0.39|
4,0,0.48|
4,1,8.7|
4,2,7.2|
4,3,7.2|
4,4,8.7|
4,5,9.3|
4,6,3.6|
4,7,4.9|
5,0,2.3|
5,1,2.1|
5,2,1.5|
5,3,7.9|
5,4,4.6|
5,5,3.1|
5,6,8.2|
5,7,3.2|
6,0,0.24|
6,1,5.3|
6,2,6.5|
6,3,0.46|
6,4,5.7|
6,5,7.9|
6,6,3.2|
6,7,6.7|
7,0,4.3|
7,1,9|
7,2,1.5|
7,3,2.5|
7,4,1.7|
7,5,4.1|
7,6,7.1|
7,7,0.61|
];
constraint_x10_x9=[
0,0,9.1|
0,1,9.1|
0,2,3.9|
0,3,9.7|
0,4,7.5|
0,5,8.4|
0,6,0.0002|
0,7,5.2|
1,0,9|
1,1,5.7|
1,2,2.7|
1,3,3.9|
1,4,2.3|
1,5,9.4|
1,6,5.6|
1,7,7.7|
2,0,8|
2,1,1.1|
2,2,3.5|
2,3,1.1|
2,4,8.2|
2,5,7.7|
2,6,2.5|
2,7,0.91|
3,0,1.2|
3,1,2.8|
3,2,9.1|
3,3,6.2|
3,4,4.7|
3,5,9.6|
3,6,2.9|
3,7,2.2|
4,0,3.7|
4,1,1|
4,2,6.4|
4,3,4.3|
4,4,1.5|
4,5,6.4|
4,6,5.1|
4,7,4.7|
5,0,8.6|
5,1,5.4|
5,2,8.8|
5,3,3.7|
5,4,0.91|
5,5,3.1|
5,6,3.4|
5,7,5.8|
6,0,2.5|
6,1,2.1|
6,2,5.3|
6,3,5|
6,4,8|
6,5,7.2|
6,6,1.8|
6,7,6.9|
7,0,8.2|
7,1,8|
7,2,5.2|
7,3,8.8|
7,4,3.3|
7,5,1.1|
7,6,2.6|
7,7,8.9|
];
constraint_x11_x7=[
0,0,7.6|
0,1,0.35|
0,2,8.9|
0,3,6|
0,4,1.9|
0,5,9.2|
0,6,0.45|
0,7,7.4|
1,0,6.2|
1,1,2.5|
1,2,8.3|
1,3,6.8|
1,4,2.7|
1,5,6.1|
1,6,9.3|
1,7,3.3|
2,0,1.4|
2,1,7|
2,2,7|
2,3,6.1|
2,4,3.6|
2,5,2.3|
2,6,8.8|
2,7,7.6|
3,0,2.1|
3,1,0.86|
3,2,2.1|
3,3,4.1|
3,4,5.8|
3,5,9.1|
3,6,3.4|
3,7,2.2|
4,0,7.4|
4,1,8.2|
4,2,4.8|
4,3,8.9|
4,4,9.9|
4,5,0.45|
4,6,8.8|
4,7,4.9|
5,0,3.9|
5,1,3|
5,2,8.4|
5,3,3.4|
5,4,6.5|
5,5,4.1|
5,6,1.7|
5,7,4.6|
6,0,7.9|
6,1,6.5|
6,2,7.4|
6,3,3.9|
6,4,5.8|
6,5,2.9|
6,6,9.5|
6,7,3.4|
7,0,2.9|
7,1,3.6|
7,2,7.7|
7,3,7.1|
7,4,6|
7,5,8.7|
7,6,2.6|
7,7,1.7|
];
constraint_x11_x10=[
0,0,9.5|
0,1,10|
0,2,4.3|
0,3,8|
0,4,4.4|
0,5,2|
0,6,2.1|
0,7,6.8|
1,0,4.8|
1,1,4.7|
1,2,3.3|
1,3,5.5|
1,4,7.3|
1,5,7.6|
1,6,7|
1,7,6|
2,0,3.1|
2,1,7.6|
2,2,4.9|
2,3,4.1|
2,4,2.8|
2,5,5.7|
2,6,5.5|
2,7,5|
3,0,4.2|
3,1,3.2|
3,2,4.3|
3,3,6.5|
3,4,9.9|
3,5,5.7|
3,6,1.7|
3,7,0.81|
4,0,8.6|
4,1,8|
4,2,0.23|
4,3,9.4|
4,4,0.89|
4,5,2.8|
4,6,8.7|
4,7,0.23|
5,0,8.2|
5,1,4.4|
5,2,6.5|
5,3,7|
5,4,7|
5,5,3.6|
5,6,3.2|
5,7,0.49|
6,0,2.2|
6,1,2.2|
6,2,0.82|
6,3,7|
6,4,3.4|
6,5,7.3|
6,6,0.48|
6,7,4.2|
7,0,5|
7,1,7.3|
7,2,0.68|
7,3,7.8|
7,4,5.3|
7,5,1|
7,6,8.1|
7,7,7.2|
];
constraint_x12_x8=[
0,0,9.8|
0,1,7.2|
0,2,1.5|
0,3,3.4|
0,4,0.61|
0,5,3.6|
0,6,7.8|
0,7,1.5|
1,0,6.7|
1,1,1.7|
1,2,0.68|
1,3,9.9|
1,4,9|
1,5,3.9|
1,6,0.88|
1,7,4.6|
2,0,5.3|
2,1,0.28|
2,2,1.4|
2,3,3|
2,4,2.1|
2,5,5.8|
2,6,7.3|
2,7,7.1|
3,0,3.6|
3,1,3.2|
3,2,5.3|
3,3,6.2|
3,4,5.9|
3,5,0.95|
3,6,1.5|
3,7,8.1|
4,0,0.6|
4,1,8.3|
4,2,3.5|
4,3,3.6|
4,4,10|
4,5,5.1|
4,6,8|
4,7,2.9|
5,0,0.21|
5,1,4.4|
5,2,0.8|
5,3,1.9|
5,4,4.4|
5,5,4.8|
5,6,7.4|
5,7,4.1|
6,0,3.7|
6,1,9.6|
6,2,3|
6,3,8.8|
6,4,5.4|
6,5,0.92|
6,6,2.6|
6,7,3|
7,0,5.7|
7,1,9.4|
7,2,4.9|
7,3,5.8|
7,4,9.3|
7,5,7.5|
7,6,7.4|
7,7,2.8|
];
constraint_x12_x11=[
0,0,5.5|
0,1,8.1|
0,2,4.3|
0,3,4.8|
0,4,3.5|
0,5,7.3|
0,6,4.1|
0,7,7.3|
1,0,7.3|
1,1,5.7|
1,2,5.7|
1,3,2|
1,4,8.7|
1,5,2.7|
1,6,4.9|
1,7,6.7|
2,0,8.5|
2,1,1.1|
2,2,7.9|
2,3,7|
2,4,0.03|
2,5,4|
2,6,7.8|
2,7,5.5|
3,0,3.2|
3,1,0.65|
3,2,6.7|
3,3,9.9|
3,4,4.4|
3,5,2.5|
3,6,3.5|
3,7,5.9|
4,0,8.4|
4,1,2.8|
4,2,9.2|
4,3,6|
4,4,7.3|
4,5,6.5|
4,6,4|
4,7,4.3|
5,0,6.7|
5,1,2.6|
5,2,7.3|
5,3,6.9|
5,4,4.6|
5,5,7.9|
5,6,6.2|
5,7,7.2|
6,0,9.7|
6,1,8.8|
6,2,1.9|
6,3,2.7|
6,4,9.8|
6,5,0.62|
6,6,8.2|
6,7,5|
7,0,7.8|
7,1,0.97|
7,2,0.34|
7,3,2|
7,4,7.4|
7,5,0.54|
7,6,9.1|
7,7,2.8|
];
constraint_x13_x9=[
0,0,3.3|
0,1,2.5|
0,2,7.3|
0,3,2|
0,4,1.4|
0,5,8.3|
0,6,5.3|
0,7,4.6|
1,0,5.8|
1,1,0.37|
1,2,4.5|
1,3,0.71|
1,4,1.6|
1,5,1.4|
1,6,7.5|
1,7,0.88|
2,0,0.76|
2,1,4.6|
2,2,5.2|
2,3,7.8|
2,4,3.2|
2,5,3.3|
2,6,5.1|
2,7,6.4|
3,0,3.7|
3,1,4.6|
3,2,9.7|
3,3,8.1|
3,4,6.5|
3,5,3.6|
3,6,7.1|
3,7,2.6|
4,0,8.4|
4,1,9.6|
4,2,5.1|
4,3,7.4|
4,4,9.8|
4,5,7.6|
4,6,8.1|
4,7,3.2|
5,0,7.1|
5,1,6.6|
5,2,7|
5,3,0.35|
5,4,1.1|
5,5,0.63|
5,6,6.5|
5,7,9|
6,0,2.8|
6,1,9.6|
6,2,5|
6,3,1.1|
6,4,0.98|
6,5,8.4|
6,6,7.7|
6,7,0.81|
7,0,4.1|
7,1,1|
7,2,3.7|
7,3,5.8|
7,4,1.5|
7,5,2.2|
7,6,3|
7,7,5.2|
];
constraint_x14_x10=[
0,0,4.6|
0,1,0.36|
0,2,4.9|
0,3,6.3|
0,4,9.4|
0,5,4.1|
0,6,5.5|
0,7,3.8|
1,0,9|
1,1,8.7|
1,2,2.2|
1,3,3.1|
1,4,2.7|
1,5,2.4|
1,6,9.3|
1,7,2.6|
2,0,9.8|
2,1,3.7|
2,2,1|
2,3,2.9|
2,4,2.4|
2,5,7.6|
2,6,4|
2,7,1.5|
3,0,6|
3,1,2.3|
3,2,4.5|
3,3,8.9|
3,4,5|
3,5,7.6|
3,6,7.6|
3,7,6.8|
4,0,5.3|
4,1,4.7|
4,2,8.8|
4,3,2.9|
4,4,5.7|
4,5,9.4|
4,6,4.4|
4,7,3.7|
5,0,9|
5,1,0.11|
5,2,8.2|
5,3,9.1|
5,4,8.3|
5,5,4.1|
5,6,1.3|
5,7,4.8|
6,0,9.4|
6,1,8|
6,2,2.5|
6,3,2|
6,4,3.9|
6,5,6|
6,6,4.7|
6,7,2.8|
7,0,9.9|
7,1,1.9|
7,2,8.8|
7,3,8.4|
7,4,0.54|
7,5,7.6|
7,6,0.4|
7,7,5.5|
];
constraint_x1_y1=[
0,0,4.1|
0,1,7|
0,2,5.5|
0,3,6.7|
0,4,9.2|
0,5,1.1|
0,6,8|
0,7,3.2|
1,0,9.2|
1,1,1.8|
1,2,7.5|
1,3,4.4|
1,4,7.8|
1,5,4.4|
1,6,9.4|
1,7,0.6|
2,0,4.3|
2,1,1|
2,2,8.4|
2,3,6.9|
2,4,5.9|
2,5,2.3|
2,6,2.1|
2,7,1.3|
3,0,1.7|
3,1,4.5|
3,2,4.1|
3,3,0.96|
3,4,2.9|
3,5,6.3|
3,6,2.2|
3,7,8.8|
4,0,1.8|
4,1,7|
4,2,4.8|
4,3,7.6|
4,4,2.7|
4,5,0.34|
4,6,0.63|
4,7,10|
5,0,4.3|
5,1,7.1|
5,2,4.4|
5,3,3.6|
5,4,5.3|
5,5,3.3|
5,6,6.1|
5,7,6.3|
6,0,3|
6,1,6.9|
6,2,8.2|
6,3,7.4|
6,4,5.4|
6,5,4.5|
6,6,7.3|
6,7,0.14|
7,0,2.1|
7,1,8.5|
7,2,7.6|
7,3,1.3|
7,4,6.2|
7,5,3.3|
7,6,0.95|
7,7,8.5|
];
constraint_x2_y2=[
0,0,5.8|
0,1,2.7|
0,2,3.8|
0,3,9.6|
0,4,5.5|
0,5,2.5|
0,6,9.1|
0,7,0.27|
1,0,5.4|
1,1,3.5|
1,2,8.8|
1,3,5.4|
1,4,6.4|
1,5,3.2|
1,6,2.9|
1,7,4.7|
2,0,7.1|
2,1,9.8|
2,2,1.8|
2,3,6.7|
2,4,9.3|
2,5,4.6|
2,6,3.5|
2,7,6.9|
3,0,8.4|
3,1,0.051|
3,2,2.3|
3,3,0.065|
3,4,6.5|
3,5,0.21|
3,6,1.5|
3,7,1.4|
4,0,4|
4,1,6.3|
4,2,4|
4,3,6.3|
4,4,4.1|
4,5,3.8|
4,6,8|
4,7,2.7|
5,0,7.5|
5,1,0.06|
5,2,3|
5,3,3.1|
5,4,1.3|
5,5,7.2|
5,6,5.7|
5,7,2.2|
6,0,9.4|
6,1,9.9|
6,2,4.6|
6,3,6.3|
6,4,2.8|
6,5,5.3|
6,6,2.4|
6,7,8.6|
7,0,8.1|
7,1,1.2|
7,2,5.8|
7,3,5.2|
7,4,4.9|
7,5,8|
7,6,5.7|
7,7,2.5|
];
constraint_x3_y3=[
0,0,6|
0,1,2.2|
0,2,6.1|
0,3,6.8|
0,4,5.9|
0,5,7|
0,6,0.96|
0,7,0.94|
1,0,2.1|
1,1,7.3|
1,2,9.1|
1,3,1|
1,4,1.8|
1,5,4.4|
1,6,2.6|
1,7,9.1|
2,0,9.5|
2,1,5.5|
2,2,3.8|
2,3,9.5|
2,4,4.7|
2,5,5.2|
2,6,3.8|
2,7,3.7|
3,0,1.2|
3,1,4.2|
3,2,3|
3,3,4.4|
3,4,9.7|
3,5,0.31|
3,6,9.9|
3,7,1|
4,0,1.5|
4,1,3.8|
4,2,2.4|
4,3,5.2|
4,4,6.7|
4,5,4.1|
4,6,1.7|
4,7,3.6|
5,0,2.5|
5,1,8.5|
5,2,5|
5,3,8.9|
5,4,2.6|
5,5,9.3|
5,6,0.77|
5,7,2.6|
6,0,0.61|
6,1,4.4|
6,2,5.8|
6,3,8.4|
6,4,7.5|
6,5,1.5|
6,6,1.8|
6,7,5.4|
7,0,7.5|
7,1,1.5|
7,2,7.3|
7,3,3.3|
7,4,3.3|
7,5,9.8|
7,6,0.57|
7,7,3.4|
];
constraint_x4_y4=[
0,0,5.9|
0,1,7.4|
0,2,4.4|
0,3,7.5|
0,4,8.6|
0,5,7.2|
0,6,3|
0,7,0.24|
1,0,8.3|
1,1,8.6|
1,2,5.5|
1,3,6.7|
1,4,2.3|
1,5,7.8|
1,6,4.8|
1,7,5.8|
2,0,6.4|
2,1,2.4|
2,2,4.3|
2,3,7.1|
2,4,5.3|
2,5,8.9|
2,6,2.6|
2,7,2.1|
3,0,9.1|
3,1,6.6|
3,2,7.2|
3,3,4.5|
3,4,0.34|
3,5,6.7|
3,6,9.5|
3,7,0.6|
4,0,7.9|
4,1,6.2|
4,2,3.8|
4,3,4.3|
4,4,8.2|
4,5,8.1|
4,6,9.4|
4,7,0.67|
5,0,0.014|
5,1,9|
5,2,1.3|
5,3,4.4|
5,4,9.6|
5,5,3.6|
5,6,3.2|
5,7,4.1|
6,0,2.3|
6,1,7.2|
6,2,2.8|
6,3,2.5|
6,4,8.5|
6,5,3.7|
6,6,3.6|
6,7,7.1|
7,0,0.034|
7,1,9.1|
7,2,6|
7,3,5|
7,4,4.9|
7,5,5.4|
7,6,4.9|
7,7,1.2|
];
constraint_x5_y5=[
0,0,0.19|
0,1,0.14|
0,2,8.2|
0,3,3.8|
0,4,5.2|
0,5,2.8|
0,6,0.27|
0,7,5.2|
1,0,4.5|
1,1,2.1|
1,2,5.7|
1,3,0.8|
1,4,2.8|
1,5,4.5|
1,6,9.7|
1,7,0.22|
2,0,5.9|
2,1,8.1|
2,2,5.8|
2,3,0.13|
2,4,6.6|
2,5,6.1|
2,6,4.5|
2,7,8.5|
3,0,5.7|
3,1,0.17|
3,2,4.4|
3,3,6.6|
3,4,2.9|
3,5,7.9|
3,6,0.95|
3,7,1.8|
4,0,6.3|
4,1,7.6|
4,2,2.8|
4,3,0.8|
4,4,5.9|
4,5,7.3|
4,6,0.86|
4,7,6.5|
5,0,2.8|
5,1,8.7|
5,2,5|
5,3,1.5|
5,4,7.1|
5,5,1.9|
5,6,1.9|
5,7,3.1|
6,0,9.8|
6,1,9.7|
6,2,8.1|
6,3,4.1|
6,4,1.2|
6,5,0.43|
6,6,3.2|
6,7,8.1|
7,0,8.3|
7,1,3.4|
7,2,3.4|
7,3,3.2|
7,4,5.6|
7,5,9.2|
7,6,4.1|
7,7,8.3|
];
constraint_x6_y6=[
0,0,4.1|
0,1,8.7|
0,2,2.8|
0,3,9.1|
0,4,1.3|
0,5,1.3|
0,6,4.6|
0,7,4.4|
1,0,8|
1,1,5.8|
1,2,3.5|
1,3,5.5|
1,4,1.9|
1,5,8.6|
1,6,3.4|
1,7,7.2|
2,0,1.1|
2,1,2.3|
2,2,0.53|
2,3,5.5|
2,4,8.3|
2,5,1.2|
2,6,6.5|
2,7,4.3|
3,0,7.2|
3,1,1.8|
3,2,2.6|
3,3,9.1|
3,4,8.8|
3,5,0.091|
3,6,7.5|
3,7,9.7|
4,0,6.5|
4,1,4.7|
4,2,3.1|
4,3,4.2|
4,4,3.3|
4,5,6.2|
4,6,2.8|
4,7,10|
5,0,4.8|
5,1,5.5|
5,2,2.8|
5,3,1.2|
5,4,4.3|
5,5,9.2|
5,6,8|
5,7,7.1|
6,0,9.4|
6,1,4|
6,2,7.4|
6,3,3.2|
6,4,6.7|
6,5,9|
6,6,2.2|
6,7,7.3|
7,0,8.3|
7,1,4.4|
7,2,6|
7,3,9.4|
7,4,3.1|
7,5,4.7|
7,6,6.9|
7,7,3.8|
];
initial_distribution_y1=[0.18,0.12,0.16,0.14,0.14,0.19,0.04,0.015];
initial_distribution_y2=[0.078,0.088,0.16,0.17,0.2,0.15,0.012,0.14];
initial_distribution_y3=[0.29,0.067,0.01,0.36,0.018,0.043,0.16,0.052];
initial_distribution_y4=[0.11,0.25,0.13,0.13,0.12,0.16,0.11,0.0051];
initial_distribution_y5=[0.17,0.11,0.12,0.097,0.11,0.24,0.062,0.083];
initial_distribution_y6=[0.04,0.044,0.27,0.11,0.029,0.28,0.079,0.15];
transition_y1=[
0.24,0.05,0.033,0.14,0.038,0.19,0.062,0.25|
0.11,0.2,0.21,0.19,0.015,0.12,0.12,0.041|
0.11,0.17,0.2,0.064,0.18,0.15,0.051,0.065|
0.14,0.14,0.18,0.14,0.094,0.016,0.23,0.059|
0.083,0.045,0.1,0.27,0.021,0.11,0.15,0.22|
0.17,0.093,0.098,0.13,0.091,0.065,0.31,0.046|
0.04,0.17,0.18,0.21,0.033,0.19,0.13,0.055|
0.032,0.071,0.14,0.23,0.041,0.064,0.24,0.19|
];
transition_y2=[
0.19,0.089,0.16,0.038,0.0068,0.15,0.2,0.17|
0.036,0.19,0.05,0.15,0.19,0.17,0.063,0.16|
0.15,0.016,0.073,0.2,0.042,0.14,0.17,0.22|
0.12,0.025,0.044,0.097,0.12,0.23,0.12,0.24|
0.16,0.033,0.26,0.21,0.029,0.036,0.15,0.12|
0.078,0.16,0.075,0.063,0.21,0.098,0.14,0.18|
0.24,0.014,0.075,0.21,0.1,0.082,0.17,0.11|
0.091,0.092,0.14,0.15,0.14,0.16,0.16,0.058|
];
transition_y3=[
0.031,0.043,0.11,0.21,0.14,0.16,0.0039,0.31|
0.15,0.18,0.013,0.13,0.07,0.24,0.14,0.07|
0.0042,0.042,0.093,0.23,0.061,0.19,0.19,0.18|
0.12,0.18,0.088,0.1,0.11,0.15,0.19,0.07|
0.1,0.16,0.16,0.19,0.094,0.11,0.059,0.13|
0.16,0.13,0.1,0.17,0.14,0.052,0.17,0.08|
0.13,0.15,0.094,0.057,0.032,0.17,0.17,0.2|
0.15,0.19,0.16,0.16,0.011,0.0091,0.16,0.16|
];
transition_y4=[
0.14,0.17,0.12,0.086,0.18,0.2,0.036,0.066|
0.077,0.17,0.22,0.075,0.034,0.092,0.18,0.14|
0.26,0.0038,0.016,0.13,0.19,0.27,0.096,0.035|
0.14,0.11,0.12,0.11,0.066,0.23,0.073,0.14|
0.13,0.034,0.019,0.11,0.034,0.2,0.1,0.37|
0.088,0.075,0.21,0.28,0.032,0.021,0.021,0.27|
0.084,0.1,0.12,0.13,0.064,0.15,0.15,0.2|
0.18,0.085,0.22,0.079,0.13,0.083,0.086,0.13|
];
transition_y5=[
0.07,0.18,0.073,0.13,0.14,0.19,0.0073,0.21|
0.24,0.052,0.0041,0.16,0.23,0.16,0.13,0.02|
0.054,0.03,0.11,0.038,0.27,0.21,0.058,0.23|
0.0022,0.17,0.047,0.18,0.18,0.17,0.084,0.18|
0.061,0.15,0.022,0.07,0.15,0.18,0.22,0.15|
0.095,0.14,0.24,0.011,0.063,0.19,0.09,0.18|
0.16,0.055,0.11,0.21,0.046,0.16,0.2,0.051|
0.16,0.061,0.16,0.088,0.11,0.14,0.21,0.075|
];
transition_y6=[
0.12,0.11,0.2,0.09,0.17,0.15,0.068,0.084|
0.13,0.022,0.16,0.19,0.25,0.14,0.064,0.027|
0.18,0.14,0.19,0.047,0.075,0.15,0.04,0.17|
0.22,0.11,0.058,0.25,0.033,0.17,0.096,0.073|
0.14,0.12,0.043,0.18,0.13,0.019,0.19,0.17|
0.17,0.2,0.018,0.11,0.15,0.063,0.14,0.16|
0.17,0.0062,0.11,0.13,0.22,0.015,0.22,0.14|
0.13,0.13,0.061,0.12,0.19,0.04,0.22,0.11|
];
